flay03m.py
Ipopt 3.12.8: 
==> Warning: Treating 12 binary and 0 integer variables as continous.


******************************************************************************
This program contains Ipopt, a library for large-scale nonlinear optimization.
 Ipopt is released as open source code under the Eclipse Public License (EPL).
         For more information visit http://projects.coin-or.org/Ipopt
******************************************************************************

This is Ipopt version 3.12.8, running with linear solver ma27.

Number of nonzeros in equality constraint Jacobian...:       12
Number of nonzeros in inequality constraint Jacobian.:       72
Number of nonzeros in Lagrangian Hessian.............:        3

Total number of variables............................:       26
                     variables with only lower bounds:        0
                variables with lower and upper bounds:       26
                     variables with only upper bounds:        0
Total number of equality constraints.................:        3
Total number of inequality constraints...............:       21
        inequality constraints with only lower bounds:        6
   inequality constraints with lower and upper bounds:        0
        inequality constraints with only upper bounds:       15

iter    objective    inf_pr   inf_du lg(mu)  ||d||  lg(rg) alpha_du alpha_pr  ls
   0  3.9999960e-02 5.84e+01 1.18e+00  -1.0 0.00e+00    -  0.00e+00 0.00e+00   0
   1  1.6478987e-01 5.67e+01 2.65e+00  -1.0 2.15e+01    -  7.80e-03 3.01e-02h  1
   2  6.7710793e+00 2.80e+01 1.70e+01  -1.0 2.06e+01    -  3.17e-02 1.00e+00f  1
   3  1.1213802e+01 1.37e+01 3.35e+00  -1.0 2.05e+00    -  4.67e-01 1.00e+00h  1
   4  1.9128851e+01 6.29e+00 1.30e+00  -1.0 3.63e+00    -  3.52e-01 9.84e-01h  1
   5  2.6569872e+01 2.68e+00 1.46e+00  -1.0 3.43e+00    -  1.38e-01 6.22e-01h  1
   6  3.1595588e+01 0.00e+00 2.39e-01  -1.0 3.26e+00    -  8.11e-01 1.00e+00h  1
   7  3.1431071e+01 5.29e-03 1.86e-01  -1.0 2.72e+00    -  8.48e-01 6.11e-01f  1
   8  3.1033493e+01 3.50e-03 5.94e-03  -1.7 3.74e-01    -  1.00e+00 1.00e+00f  1
   9  3.0994455e+01 0.00e+00 4.11e-04  -2.5 1.52e-01    -  1.00e+00 1.00e+00h  1
iter    objective    inf_pr   inf_du lg(mu)  ||d||  lg(rg) alpha_du alpha_pr  ls
  10  3.0984536e+01 0.00e+00 1.67e-05  -3.8 5.06e-02    -  1.00e+00 1.00e+00h  1
  11  3.0983876e+01 0.00e+00 1.56e-07  -5.7 1.14e-02    -  1.00e+00 1.00e+00h  1
  12  3.0983867e+01 0.00e+00 1.93e-10  -8.6 1.26e-03    -  1.00e+00 1.00e+00h  1

Number of Iterations....: 12

                                   (scaled)                 (unscaled)
Objective...............:   3.0983866682141979e+01    3.0983866682141979e+01
Dual infeasibility......:   1.9260119357344761e-10    1.9260119357344761e-10
Constraint violation....:   0.0000000000000000e+00    0.0000000000000000e+00
Complementarity.........:   3.8905459732586702e-09    3.8905459732586702e-09
Overall NLP error.......:   3.8905459732586702e-09    3.8905459732586702e-09


Number of objective function evaluations             = 13
Number of objective gradient evaluations             = 13
Number of equality constraint evaluations            = 13
Number of inequality constraint evaluations          = 13
Number of equality constraint Jacobian evaluations   = 13
Number of inequality constraint Jacobian evaluations = 13
Number of Lagrangian Hessian evaluations             = 12
Total CPU secs in IPOPT (w/o function evaluations)   =      0.004
Total CPU secs in NLP function evaluations           =      0.000

EXIT: Optimal Solution Found.

Time elapsed: 0.116271972656